language Essence 1.3

letting blksize_delta be
        function(1 --> 9, 2 --> 10, 3 --> 9, 4 --> 9, 5 --> 9, 6 --> 9, 7 --> 9, 8 --> 9, 9 --> 10, 10 --> 9, 11 --> 9,
                 12 --> 9, 13 --> 9, 14 --> 9, 15 --> 9)
letting maxcars be
        function(1 --> 9, 2 --> 10, 3 --> 9, 4 --> 9, 5 --> 9, 6 --> 9, 7 --> 9, 8 --> 9, 9 --> 9, 10 --> 9, 11 --> 9,
                 12 --> 10, 13 --> 9, 14 --> 9, 15 --> 9)
letting n_cars be 238
letting n_classes be 41
letting n_options be 15
letting quantity be
        function(1 --> 5, 2 --> 36, 3 --> 5, 4 --> 5, 5 --> 5, 6 --> 5, 7 --> 5, 8 --> 5, 9 --> 5, 10 --> 5, 11 --> 5,
                 12 --> 5, 13 --> 7, 14 --> 5, 15 --> 5, 16 --> 5, 17 --> 5, 18 --> 5, 19 --> 5, 20 --> 5, 21 --> 5,
                 22 --> 5, 23 --> 5, 24 --> 5, 25 --> 5, 26 --> 5, 27 --> 5, 28 --> 5, 29 --> 5, 30 --> 5, 31 --> 5,
                 32 --> 5, 33 --> 5, 34 --> 5, 35 --> 5, 36 --> 5, 37 --> 5, 38 --> 5, 39 --> 5, 40 --> 5, 41 --> 5)
letting usage be
        relation((1, 1), (2, 13), (3, 6), (3, 10), (4, 15), (5, 1), (6, 1), (7, 8), (8, 1), (8, 2), (8, 4), (8, 14),
                 (9, 4), (10, 15), (11, 10), (12, 2), (13, 15), (14, 12), (15, 12), (16, 6), (16, 15), (17, 7), (17, 8),
                 (18, 6), (18, 7), (19, 7), (20, 6), (21, 2), (21, 7), (21, 10), (21, 12), (21, 14), (21, 15), (22, 8),
                 (23, 3), (23, 13), (24, 4), (24, 6), (25, 12), (26, 15), (27, 1), (27, 9), (28, 3), (29, 10), (30, 1),
                 (31, 4), (32, 13), (32, 14), (33, 8), (33, 15), (34, 1), (34, 4), (35, 15), (36, 5), (37, 6), (37, 13),
                 (38, 6), (39, 2), (40, 3), (41, 1), (41, 7), (41, 8), (41, 11), (41, 14))
$ Visualisation for usage
$  1  1
$  2 13
$  3  6
$  3 10
$  4 15
$  5  1
$  6  1
$  7  8
$  8  1
$  8  2
$  8  4
$  8 14
$  9  4
$ 10 15
$ 11 10
$ 12  2
$ 13 15
$ 14 12
$ 15 12
$ 16  6
$ 16 15
$ 17  7
$ 17  8
$ 18  6
$ 18  7
$ 19  7
$ 20  6
$ 21  2
$ 21  7
$ 21 10
$ 21 12
$ 21 14
$ 21 15
$ 22  8
$ 23  3
$ 23 13
$ 24  4
$ 24  6
$ 25 12
$ 26 15
$ 27  1
$ 27  9
$ 28  3
$ 29 10
$ 30  1
$ 31  4
$ 32 13
$ 32 14
$ 33  8
$ 33 15
$ 34  1
$ 34  4
$ 35 15
$ 36  5
$ 37  6
$ 37 13
$ 38  6
$ 39  2
$ 40  3
$ 41  1
$ 41  7
$ 41  8
$ 41 11
$ 41 14

